dias = 30;
clientes = 64;
centrales = 3;

costos=[100,200,300];
capacidades=[4000,20000,26000];
porcentajeRegimen=[80,80,80];
diasRegimen=[2,1,3];

demanda=[|50,200,200,400,0,900,0,100,500,10,50,200,200,400,0,900,0,100,500,10,50,200,200,400,0,900,0,100,500,10|
          25,100,100,100,300,0,0,150,300,1000,25,100,100,100,300,0,0,150,300,1000,25,100,100,100,300,0,0,150,300,1000|
          50,10,100,10,0,300,0,150,300,10,50,10,100,10,0,300,0,150,300,10,50,10,100,10,0,300,0,150,300,10|
          25,300,100,100,1000,0,0,200,300,10,25,300,100,100,1000,0,0,200,300,10,25,300,100,100,1000,0,0,200,300,10|
          50,100,10,300,0,300,1000,150,300,10,50,100,10,300,0,300,1000,150,300,10,50,100,10,300,0,300,1000,150,300,10|
          25,300,100,100,0,150,0,150,300,10,25,300,100,100,0,150,0,150,300,10,25,300,100,100,0,150,0,150,300,10|
          50,150,1000,100,150,0,0,150,300,150,50,150,1000,100,150,0,0,150,300,150,50,150,1000,100,150,0,0,150,300,150|
          50,100,150,250,0,150,0,200,300,10,50,100,150,250,0,150,0,200,300,10,50,100,150,250,0,150,0,200,300,10|
          50,200,200,400,0,900,0,100,500,10,50,200,200,400,0,900,0,100,500,10,50,200,200,400,0,900,0,100,500,10|
          25,100,100,100,300,0,0,150,300,1000,25,100,100,100,300,0,0,150,300,1000,25,100,100,100,300,0,0,150,300,1000|
          50,10,100,10,0,300,0,150,300,10,50,10,100,10,0,300,0,150,300,10,50,10,100,10,0,300,0,150,300,10|
          25,300,100,100,0,0,0,200,300,10,25,300,100,100,0,0,0,200,300,10,25,300,100,100,0,0,0,200,300,10|
          50,100,10,300,0,300,0,150,300,10,50,100,10,300,0,300,0,150,300,10,50,100,10,300,0,300,0,150,300,10|
          25,300,100,100,0,0,0,150,300,10,25,300,100,100,0,0,0,150,300,10,25,300,100,100,0,0,0,150,300,10|
          50,100,150,100,150,0,0,150,300,10, 50,100,150,100,150,0,0,150,300,10, 50,100,150,100,150,0,0,150,300,10|
          50,100,100,250,0,150,0,200,300,10,50,100,100,250,0,150,0,200,300,10,50,100,100,250,0,150,0,200,300,10|
          50,200,200,400,0,900,0,100,500,10,50,200,200,400,0,900,0,100,500,10,50,200,200,400,0,900,0,100,500,10|
          25,100,100,100,300,0,0,150,300,1000,25,100,100,100,300,0,0,150,300,1000,25,100,100,100,300,0,0,150,300,1000|
          50,10,100,10,0,300,0,150,300,10,50,10,100,10,0,300,0,150,300,10,50,10,100,10,0,300,0,150,300,10|
          25,300,100,100,1000,0,0,200,300,10,25,300,100,100,1000,0,0,200,300,10,25,300,100,100,1000,0,0,200,300,10|
          50,100,10,300,0,300,1000,150,300,10,50,100,10,300,0,300,1000,150,300,10,50,100,10,300,0,300,1000,150,300,10|
          25,300,100,100,0,150,0,150,300,10,25,300,100,100,0,150,0,150,300,10,25,300,100,100,0,150,0,150,300,10|
          50,150,1000,100,150,0,0,150,300,150,50,150,1000,100,150,0,0,150,300,150,50,150,1000,100,150,0,0,150,300,150|
          50,100,150,250,0,150,0,200,300,10,50,100,150,250,0,150,0,200,300,10,50,100,150,250,0,150,0,200,300,10|
          50,200,200,400,0,900,0,100,500,10,50,200,200,400,0,900,0,100,500,10,50,200,200,400,0,900,0,100,500,10|
          25,100,100,100,300,0,0,150,300,1000,25,100,100,100,300,0,0,150,300,1000,25,100,100,100,300,0,0,150,300,1000|
          50,10,100,10,0,300,0,150,300,10,50,10,100,10,0,300,0,150,300,10,50,10,100,10,0,300,0,150,300,10|
          25,300,100,100,0,0,0,200,300,10,25,300,100,100,0,0,0,200,300,10,25,300,100,100,0,0,0,200,300,10|
          50,100,10,300,0,300,0,150,300,10,50,100,10,300,0,300,0,150,300,10,50,100,10,300,0,300,0,150,300,10|
          25,300,100,100,0,0,0,150,300,10,25,300,100,100,0,0,0,150,300,10,25,300,100,100,0,0,0,150,300,10|
          50,100,150,100,150,0,0,150,300,10, 50,100,150,100,150,0,0,150,300,10, 50,100,150,100,150,0,0,150,300,10|
          50,100,100,250,0,150,0,200,300,10,50,100,100,250,0,150,0,200,300,10,50,100,100,250,0,150,0,200,300,10|
          50,200,200,400,0,900,0,100,500,10,50,200,200,400,0,900,0,100,500,10,50,200,200,400,0,900,0,100,500,10|
          25,100,100,100,300,0,0,150,300,1000,25,100,100,100,300,0,0,150,300,1000,25,100,100,100,300,0,0,150,300,1000|
          50,10,100,10,0,300,0,150,300,10,50,10,100,10,0,300,0,150,300,10,50,10,100,10,0,300,0,150,300,10|
          25,300,100,100,1000,0,0,200,300,10,25,300,100,100,1000,0,0,200,300,10,25,300,100,100,1000,0,0,200,300,10|
          50,100,10,300,0,300,1000,150,300,10,50,100,10,300,0,300,1000,150,300,10,50,100,10,300,0,300,1000,150,300,10|
          25,300,100,100,0,150,0,150,300,10,25,300,100,100,0,150,0,150,300,10,25,300,100,100,0,150,0,150,300,10|
          50,150,1000,100,150,0,0,150,300,150,50,150,1000,100,150,0,0,150,300,150,50,150,1000,100,150,0,0,150,300,150|
          50,100,150,250,0,150,0,200,300,10,50,100,150,250,0,150,0,200,300,10,50,100,150,250,0,150,0,200,300,10|
          50,200,200,400,0,900,0,100,500,10,50,200,200,400,0,900,0,100,500,10,50,200,200,400,0,900,0,100,500,10|
          25,100,100,100,300,0,0,150,300,1000,25,100,100,100,300,0,0,150,300,1000,25,100,100,100,300,0,0,150,300,1000|
          50,10,100,10,0,300,0,150,300,10,50,10,100,10,0,300,0,150,300,10,50,10,100,10,0,300,0,150,300,10|
          25,300,100,100,0,0,0,200,300,10,25,300,100,100,0,0,0,200,300,10,25,300,100,100,0,0,0,200,300,10|
          50,100,10,300,0,300,0,150,300,10,50,100,10,300,0,300,0,150,300,10,50,100,10,300,0,300,0,150,300,10|
          25,300,100,100,0,0,0,150,300,10,25,300,100,100,0,0,0,150,300,10,25,300,100,100,0,0,0,150,300,10|
          50,100,150,100,150,0,0,150,300,10, 50,100,150,100,150,0,0,150,300,10, 50,100,150,100,150,0,0,150,300,10|
          50,100,100,250,0,150,0,200,300,10,50,100,100,250,0,150,0,200,300,10,50,100,100,250,0,150,0,200,300,10|
          50,200,200,400,0,900,0,100,500,10,50,200,200,400,0,900,0,100,500,10,50,200,200,400,0,900,0,100,500,10|
          25,100,100,100,300,0,0,150,300,1000,25,100,100,100,300,0,0,150,300,1000,25,100,100,100,300,0,0,150,300,1000|
          50,10,100,10,0,300,0,150,300,10,50,10,100,10,0,300,0,150,300,10,50,10,100,10,0,300,0,150,300,10|
          25,300,100,100,1000,0,0,200,300,10,25,300,100,100,1000,0,0,200,300,10,25,300,100,100,1000,0,0,200,300,10|
          50,100,10,300,0,300,1000,150,300,10,50,100,10,300,0,300,1000,150,300,10,50,100,10,300,0,300,1000,150,300,10|
          25,300,100,100,0,150,0,150,300,10,25,300,100,100,0,150,0,150,300,10,25,300,100,100,0,150,0,150,300,10|
          50,150,1000,100,150,0,0,150,300,150,50,150,1000,100,150,0,0,150,300,150,50,150,1000,100,150,0,0,150,300,150|
          50,100,150,250,0,150,0,200,300,10,50,100,150,250,0,150,0,200,300,10,50,100,150,250,0,150,0,200,300,10|
          50,200,200,400,0,900,0,100,500,10,50,200,200,400,0,900,0,100,500,10,50,200,200,400,0,900,0,100,500,10|
          25,100,100,100,300,0,0,150,300,1000,25,100,100,100,300,0,0,150,300,1000,25,100,100,100,300,0,0,150,300,1000|
          50,10,100,10,0,300,0,150,300,10,50,10,100,10,0,300,0,150,300,10,50,10,100,10,0,300,0,150,300,10|
          25,300,100,100,0,0,0,200,300,10,25,300,100,100,0,0,0,200,300,10,25,300,100,100,0,0,0,200,300,10|
          50,100,10,300,0,300,0,150,300,10,50,100,10,300,0,300,0,150,300,10,50,100,10,300,0,300,0,150,300,10|
          25,300,100,100,0,0,0,150,300,10,25,300,100,100,0,0,0,150,300,10,25,300,100,100,0,0,0,150,300,10|
          50,100,150,100,150,0,0,150,300,10, 50,100,150,100,150,0,0,150,300,10, 50,100,150,100,150,0,0,150,300,10|
          50,100,100,250,0,150,0,200,300,10,50,100,100,250,0,150,0,200,300,10,50,100,100,250,0,150,0,200,300,10|]

